BiSeI                                   
   1.00000000000000     
     8.7046003342000002    0.0000000000000000    0.0000000000000000
     0.0000000000000000    4.2165279387999997    0.0000000000000000
     0.0000000000000000    0.0000000000000000   10.5907630919999995
   Bi   Se   I 
     4     4     4
Direct
  0.8682622781336491  0.2482793607707308  0.6283339839955602
  0.6371819921563002  0.7529259220730751  0.1295071044171578
  0.1326225412915036  0.7512135281906964  0.3688265914327999
  0.3698552846107575  0.2552434161117816  0.8748883065259108
  0.1713344826738776  0.2505254308458618  0.5529322043086040
  0.3293312669509803  0.7497804172496458  0.0528413626422974
  0.8280718572052521  0.7513044501842572  0.4471354364945412
  0.6709738670357126  0.2496666577822282  0.9487693576950420
  0.0165434566993525  0.7458673886895539  0.8272171977284302
  0.4850002677773446  0.2499976164722781  0.3286997771233757
  0.9854399337607731  0.2495916418164441  0.1672859572838519
  0.5146178234410428  0.7500039039749637  0.6716005720425997
 
  0.00000000E+00  0.00000000E+00  0.00000000E+00
  0.00000000E+00  0.00000000E+00  0.00000000E+00
  0.00000000E+00  0.00000000E+00  0.00000000E+00
  0.00000000E+00  0.00000000E+00  0.00000000E+00
  0.00000000E+00  0.00000000E+00  0.00000000E+00
  0.00000000E+00  0.00000000E+00  0.00000000E+00
  0.00000000E+00  0.00000000E+00  0.00000000E+00
  0.00000000E+00  0.00000000E+00  0.00000000E+00
  0.00000000E+00  0.00000000E+00  0.00000000E+00
  0.00000000E+00  0.00000000E+00  0.00000000E+00
  0.00000000E+00  0.00000000E+00  0.00000000E+00
  0.00000000E+00  0.00000000E+00  0.00000000E+00
